opt/input.cpp.cnf_boolean__Z14CHECK_swap_1_21P
c boolean__Z14CHECK_swap_1_21P
p cnf 0 0
